LibMLKEM/why3-cvc5/mlkem.adb_511_55_mlkem.adb_753_7_division_check_1.smt2
;; produced by cvc5.drv ;;
(set-logic ALL)
(set-info :smt-lib-version 2.6)
;;; generated by SMT-LIB2 driver
;;; SMT-LIB2 driver: bit-vectors, common part
;;; SMT-LIB2: integer arithmetic
(define-fun __cdiv ((x Int) (y Int)) Int (ite (>= x 0) (div x y) (- (div (- x) y))))
(define-fun __cmod ((x Int) (y Int)) Int (ite (>= x 0) (mod x y) (- (mod (- x) y))))
;; "mod"
(define-fun mod1 ((x Int) (y Int)) Int
  (ite (<= 0 y) (mod x y) (- (mod (- x) y))))

;; "lsl"
(declare-fun lsl ((_ BitVec 8)
  Int) (_ BitVec 8))

;; "pow2"
(declare-fun pow2 (Int) Int)

(declare-const two_power_size_minus_one Int)

;; "two_power_size_minus_one_val"
(assert (= two_power_size_minus_one (pow2 (- 8 1))))

;; "lsl_bv_is_lsl"
(assert
  (forall ((x (_ BitVec 8)) (n (_ BitVec 8)))
    (= (bvshl x n) (lsl x (bv2nat n)))))

;; "min"
(define-fun min ((x Int) (y Int)) Int
  (ite (<= x y) x y))

;; "max"
(define-fun max ((x Int) (y Int)) Int
  (ite (<= x y) y x))

;; "Min_r"
(assert (forall ((x Int) (y Int)) (=> (<= y x) (= (min x y) y))))

;; "Max_l"
(assert (forall ((x Int) (y Int)) (=> (<= y x) (= (max x y) x))))

;; "Min_comm"
(assert (forall ((x Int) (y Int)) (= (min x y) (min y x))))

;; "Max_comm"
(assert (forall ((x Int) (y Int)) (= (max x y) (max y x))))

;; "Min_assoc"
(assert
  (forall ((x Int) (y Int) (z Int)) (= (min (min x y) z) (min x (min y z)))))

;; "Max_assoc"
(assert
  (forall ((x Int) (y Int) (z Int)) (= (max (max x y) z) (max x (max y z)))))

(declare-sort u8_bit 0)

;; "in_range"
(define-fun in_range ((x (_ BitVec 8))) Bool
  (and (bvule #x00 x) (bvule x #x01)))

;; "to_rep"
(declare-fun to_rep (u8_bit) (_ BitVec 8))

;; "of_rep"
(declare-fun of_rep ((_ BitVec 8)) u8_bit)

;; "inversion_axiom"
(assert
  (forall ((x u8_bit)) (! (= (of_rep (to_rep x)) x) :pattern ((to_rep x)) )))

;; "range_axiom"
(assert
  (forall ((x u8_bit)) (! (in_range (to_rep x)) :pattern ((to_rep x)) )))

;; "coerce_axiom"
(assert
  (forall ((x (_ BitVec 8)))
    (! (=> (in_range x) (= (to_rep (of_rep x)) x)) :pattern ((to_rep
                                                               (of_rep x))) )))

(declare-sort map1 0)

;; "has_bounds"
(declare-fun has_bounds (map1
  Int
  Int) Bool)

;; "get"
(declare-fun get (map1
  Int) u8_bit)

(declare-const b map1)

(declare-sort byte 0)

;; "to_rep"
(declare-fun to_rep1 (byte) (_ BitVec 8))

;; "of_rep"
(declare-fun of_rep1 ((_ BitVec 8)) byte)

;; "inversion_axiom"
(assert
  (forall ((x byte)) (! (= (of_rep1 (to_rep1 x)) x) :pattern ((to_rep1 x)) )))

;; "range_axiom"
(assert true)

;; "coerce_axiom"
(assert
  (forall ((x (_ BitVec 8)))
    (! (= (to_rep1 (of_rep1 x)) x) :pattern ((to_rep1 (of_rep1 x))) )))

(declare-sort map2 0)

;; "has_bounds"
(declare-fun has_bounds1 (map2
  Int
  Int) Bool)

;; "get"
(declare-fun get1 (map2
  Int) byte)

;; "temp_____aggregate_def_4133"
(declare-fun temp_____aggregate_def_4133 ((_ BitVec 8)) map2)

;; Goal "def'vc"
;; File "mlkem.adb", line 753, characters 0-0
(assert
  (not
  (=>
    (has_bounds b 0 255)
    (forall ((temp___4137 map2))
      (=>
        (and
          (and
            (has_bounds1 temp___4137 0 31)
            (forall ((temp___4136 Int))
              (! (=>
                   (and (<= 0 temp___4136) (<= temp___4136 31))
                   (= (to_rep1 (get1 temp___4137 temp___4136)) #x00)) :pattern (
              (get1
                temp___4137
                temp___4136)) )))
          (= temp___4137 (temp_____aggregate_def_4133 #x00)))
        (forall ((r map2))
          (=>
            (= r temp___4137)
            (=>
              (has_bounds1 r 0 31)
              (forall ((i Int))
                (=>
                  (= i 0)
                  (=>
                    (= (and (ite (<= 0 i) true false) (ite (<= i 255)
                                                        true
                                                        false)) true)
                    (forall ((r1 map2) (i1 Int))
                      (=>
                        (= (and (ite (has_bounds1 r1 0 31) true false) 
                        (ite (and (<= 0 i1) (<= i1 255))
                          true
                          false)) true)
                        (forall ((o (_ BitVec 8)))
                          (=>
                            (let ((temp___4143 (mod1 i1 8)))
                              (ite (< temp___4143 256)
                                (= o (bvshl #x01 ((_ int2bv 8) temp___4143)))
                                (= o #x00)))
                            (forall ((o1 (_ BitVec 8)))
                              (=> (= (to_rep (get b i1)) o1) (not (= 8 0)))))))))))))))))))

(check-sat)
